peakDumbCharging = 14800; 
Machine = anon_enum(16); 
machineSpeed = [3700,3700,3700,3700,3700,3700,3700,3700,3700,3700,3700,3700,3700,3700,3700,3700]; 
machineLoad = [3700,3700,3700,3700,3700,3700,3700,3700,3700,3700,3700,3700,3700,3700,3700,3700]; 
Car = anon_enum(26); 
demandCar = [5360,13000,2360,26120,10280,5560,5640,280,28480,4880,8200,2640,5840,400,5800,10360,2160,6960,2360,6600,3080,6600,4520,45720,30520,52600]; 
arrivalCar = [71,68,66,65,62,61,60,59,59,57,56,55,54,51,51,51,50,46,45,44,40,39,36,31,29,29]; 
departureCar = [74,73,68,75,67,64,66,61,69,60,61,58,57,52,56,56,52,51,47,48,43,42,40,66,59,65]; 
